
******************************************************************************
This program contains Ipopt, a library for large-scale nonlinear optimization.
 Ipopt is released as open source code under the Eclipse Public License (EPL).
         For more information visit http://projects.coin-or.org/Ipopt

This version of Ipopt was compiled from source code available at
    https://github.com/IDAES/Ipopt as part of the Institute for the Design of
    Advanced Energy Systems Process Systems Engineering Framework (IDAES PSE
    Framework) Copyright (c) 2018-2019. See https://github.com/IDAES/idaes-pse.

This version of Ipopt was compiled using HSL, a collection of Fortran codes
    for large-scale scientific computation.  All technical papers, sales and
    publicity material resulting from use of the HSL codes within IPOPT must
    contain the following acknowledgement:
        HSL, a collection of Fortran codes for large-scale scientific
        computation. See http://www.hsl.rl.ac.uk.
******************************************************************************

This is Ipopt version 3.13.2, running with linear solver ma27.

Number of nonzeros in equality constraint Jacobian...:     1172
Number of nonzeros in inequality constraint Jacobian.:        0
Number of nonzeros in Lagrangian Hessian.............:     1333

Total number of variables............................:      465
                     variables with only lower bounds:      124
                variables with lower and upper bounds:      279
                     variables with only upper bounds:        0
Total number of equality constraints.................:      462
Total number of inequality constraints...............:        0
        inequality constraints with only lower bounds:        0
   inequality constraints with lower and upper bounds:        0
        inequality constraints with only upper bounds:        0

iter    objective    inf_pr   inf_du lg(mu)  ||d||  lg(rg) alpha_du alpha_pr  ls
   0  0.0000000e+00 1.98e+00 1.12e-14  -1.0 0.00e+00    -  0.00e+00 0.00e+00   0
   1  1.5850058e+01 1.21e+00 2.61e+06  -1.0 5.06e+06    -  2.05e-02 8.31e-02h  2
   2  1.7277132e+01 1.20e+00 2.59e+06  -1.0 3.99e+07    -  4.01e-03 2.00e-03h  4
   3  2.7589087e+01 1.31e+00 2.64e+06  -1.0 8.52e+07    -  1.44e-03 2.63e-03h  2
   4  7.5442502e+01 1.44e+00 6.84e+06  -1.0 8.48e+07    -  4.38e-03 4.84e-03h  1
   5  7.6006690e+01 1.44e+00 6.84e+06  -1.0 5.81e+07    -  1.34e-02 8.29e-05h  1
   6  7.5842325e+01 1.44e+00 6.84e+06  -1.0 1.12e+08    -  1.20e-02 3.32e-05h  1
   7  7.0481085e+01 1.43e+00 1.02e+07  -1.0 8.68e+07    -  1.19e-02 3.58e-03f  2
   8  7.8501813e+01 1.43e+00 1.00e+07  -1.0 7.45e+07    -  2.25e-02 2.87e-03h  3
   9  8.5505395e+01 1.43e+00 9.17e+06  -1.0 1.02e+08    -  1.63e-02 2.64e-03h  3
iter    objective    inf_pr   inf_du lg(mu)  ||d||  lg(rg) alpha_du alpha_pr  ls
  10  8.7883960e+01 1.43e+00 9.16e+06  -1.0 1.76e+08    -  6.04e-03 5.74e-04h  4
  11  8.7964796e+01 1.43e+00 9.16e+06  -1.0 2.93e+08    -  3.17e-03 1.88e-05h  8
  12  1.0306520e+02 1.44e+00 1.00e+07  -1.0 1.73e+07  -4.0 5.53e-02 8.60e-03h  4
  13  1.0374771e+02 1.44e+00 9.99e+06  -1.0 3.68e+07    -  1.57e-03 1.59e-04h  8
  14  1.2225627e+02 1.44e+00 3.76e+07  -1.0 1.89e+07  -3.6 1.35e-06 7.37e-03h  3
  15  1.3366018e+02 1.43e+00 3.78e+07  -1.0 2.06e+07  -4.1 2.06e-04 3.62e-03h  4
  16  1.4004341e+02 1.42e+00 3.75e+07  -1.0 1.92e+07  -3.6 1.77e-03 2.61e-03h  4
  17  2.9695183e+02 9.44e+00 1.72e+09  -1.0 2.14e+07  -4.1 1.70e-02 3.36e-02w  1
  18  3.1991082e+02 9.28e+00 2.46e+09  -1.0 1.69e+07  -3.7 4.48e-02 1.79e-02w  1
  19  3.1731230e+02 9.26e+00 2.45e+09  -1.0 2.57e+07  -4.2 1.82e-01 1.38e-03w  1
iter    objective    inf_pr   inf_du lg(mu)  ||d||  lg(rg) alpha_du alpha_pr  ls
  20  1.5397447e+02 1.39e+00 3.78e+07  -1.0 1.86e+07  -3.7 1.70e-02 4.20e-03h  3
  21  1.5913251e+02 1.38e+00 3.74e+07  -1.0 1.65e+07  -3.3 2.31e-02 2.17e-03h  4
  22  1.6230842e+02 1.36e+00 3.86e+07  -1.0 2.94e+07  -3.8 6.37e-03 1.67e-03h  5
  23  1.6740777e+02 1.35e+00 3.86e+07  -1.0 1.64e+07  -3.4 3.34e-02 1.95e-03h  5
  24  1.7075387e+02 1.34e+00 3.84e+07  -1.0 1.43e+07  -2.9 2.17e-02 1.27e-03h  5
  25  1.7303853e+02 1.34e+00 3.85e+07  -1.0 1.88e+07  -3.4 1.76e-02 9.41e-04h  6
  26  1.7805370e+02 1.33e+00 3.83e+07  -1.0 1.62e+07  -3.0 6.57e-02 1.73e-03h  5
  27  1.7862200e+02 1.33e+00 3.83e+07  -1.0 2.20e+07  -3.5 1.27e-02 2.38e-04h  8
  28  1.8063944e+02 1.33e+00 3.83e+07  -1.0 5.11e+07    -  3.18e-02 2.99e-04h  9
  29  4.3415704e+02 1.66e+00 1.15e+09  -1.0 5.54e+07    -  3.51e-02 2.40e-02h  3
iter    objective    inf_pr   inf_du lg(mu)  ||d||  lg(rg) alpha_du alpha_pr  ls
  30  7.8490646e+02 3.10e+00 3.04e+09  -1.0 6.41e+07  -3.9 8.78e-02 1.81e-02w  1
  31  7.8634012e+02 3.09e+00 3.04e+09  -1.0 3.48e+07  -2.6 1.98e-02 2.37e-04w  1
  32  7.9806451e+02 2.39e+00 2.91e+09  -1.0 4.78e+07  -3.1 2.74e-06 1.59e-03w  1
  33  5.0780046e+02 1.65e+00 1.26e+09  -1.0 1.15e+08  -3.6 8.78e-02 4.52e-03h  2
  34  5.3982470e+02 1.65e+00 1.38e+09  -1.0 5.36e+07  -3.1 4.60e-02 1.96e-03h  3
  35  5.6380762e+02 1.65e+00 1.56e+09  -1.0 4.38e+07  -2.7 4.30e-02 1.71e-03h  3
  36  5.8014020e+02 1.64e+00 1.78e+09  -1.0 3.50e+07  -2.3 3.95e-02 1.39e-03h  3
  37  5.8556278e+02 1.64e+00 1.83e+09  -1.0 2.92e+07  -1.9 3.86e-02 5.41e-04h  4
  38  6.0841736e+02 1.63e+00 1.90e+09  -1.0 4.03e+07  -2.3 3.84e-02 1.83e-03h  2
  39  6.1985382e+02 1.62e+00 2.19e+09  -1.0 2.95e+07  -1.9 1.20e-01 1.21e-03h  3
iter    objective    inf_pr   inf_du lg(mu)  ||d||  lg(rg) alpha_du alpha_pr  ls
  40  6.3998675e+02 1.61e+00 3.01e+09  -1.0 4.85e+07  -2.4 1.97e-02 1.69e-03h  1
MA27BD returned iflag=-4 and requires more memory.
 Increase liw from 18645 to 37290 and la from 21795 to 45432 and factorize again.
  41  6.4043438e+02 1.61e+00 3.01e+09  -1.0 5.85e+07  -2.9 3.05e-02 2.05e-05h  1
  42  6.6920758e+02 1.61e+00 3.02e+09  -1.0 1.02e+08    -  4.22e-02 1.06e-03h  1
  43  9.8956937e+02 1.64e+00 5.08e+09  -1.0 1.07e+08    -  9.70e-02 9.80e-03h  3
  44  1.7266610e+03 1.69e+00 6.95e+10  -1.0 1.54e+08    -  3.42e-02 1.22e-02h  3
  45  1.7269973e+03 1.69e+00 6.95e+10  -1.0 5.54e+07    -  1.33e-01 2.61e-04h  5
  46  1.7630785e+03 1.69e+00 6.94e+10  -1.0 9.78e+07    -  1.05e-01 1.01e-03h  4
  47  1.8398160e+03 1.69e+00 6.93e+10  -1.0 1.45e+08    -  1.08e-01 1.33e-03h  5
  48  1.9195643e+03 1.69e+00 6.92e+10  -1.0 1.50e+08    -  6.57e-02 1.31e-03h  5
  49  1.9952368e+03 1.69e+00 6.91e+10  -1.0 1.47e+08    -  1.09e-01 1.25e-03h  5
iter    objective    inf_pr   inf_du lg(mu)  ||d||  lg(rg) alpha_du alpha_pr  ls
  50  2.0771679e+03 1.68e+00 6.90e+10  -1.0 1.55e+08    -  6.78e-02 1.24e-03h  5
  51  2.1665571e+03 1.68e+00 6.89e+10  -1.0 1.64e+08    -  1.72e-01 1.24e-03h  5
  52  2.2571215e+03 1.68e+00 6.88e+10  -1.0 1.67e+08    -  5.40e-02 1.20e-03h  5
  53  3.8262935e+03 3.65e+00 3.42e+11  -1.0 1.57e+08    -  2.33e-01 1.81e-02w  1
  54  2.7347436e+03 6.46e+00 2.44e+11  -1.0 1.49e+08    -  1.32e-01 1.10e-02w  1
  55  2.0764657e+03 6.41e+00 1.58e+11  -1.0 1.51e+08    -  8.35e-03 8.13e-03w  1
  56  2.3376168e+03 1.68e+00 6.88e+10  -1.0 5.74e+08  -2.4 2.33e-01 1.13e-03h  4
  57  2.4160607e+03 1.68e+00 6.87e+10  -1.0 1.55e+08    -  5.81e-02 1.10e-03h  5
  58  2.4838578e+03 1.68e+00 6.86e+10  -1.0 1.41e+08    -  2.41e-01 1.04e-03h  5
  59  2.5428767e+03 1.67e+00 6.86e+10  -1.0 1.29e+08    -  7.55e-02 9.93e-04h  5
iter    objective    inf_pr   inf_du lg(mu)  ||d||  lg(rg) alpha_du alpha_pr  ls
  60  2.5926562e+03 1.67e+00 6.85e+10  -1.0 1.15e+08    -  2.30e-01 9.52e-04h  5
  61  2.6329625e+03 1.67e+00 6.85e+10  -1.0 9.90e+07    -  1.13e-01 9.15e-04h  5
  62  2.6640646e+03 1.67e+00 6.84e+10  -1.0 8.21e+07    -  2.48e-01 8.83e-04h  5
  63  2.6854385e+03 1.67e+00 6.83e+10  -1.0 7.18e+07    -  2.20e-01 8.53e-04h  5
  64  2.7001697e+03 1.67e+00 6.83e+10  -1.0 7.17e+07    -  3.31e-01 8.33e-04h  5
  65  2.7132095e+03 1.67e+00 6.82e+10  -1.0 6.96e+07    -  3.04e-01 8.26e-04h  5
  66  2.8784970e+03 4.67e+00 2.47e+11  -1.0 6.85e+07    -  1.33e-01 1.30e-02w  1
  67  2.1199033e+03 8.40e+00 9.00e+10  -1.0 1.30e+08    -  1.73e-02 1.06e-02w  1
  68  1.7424607e+03 8.40e+00 1.75e+11  -1.0 2.96e+09  -2.9 3.07e-04 2.81e-04w  1
  69  2.7207003e+03 1.67e+00 6.82e+10  -1.0 1.02e+08  -1.6 1.33e-01 8.12e-04h  4
iter    objective    inf_pr   inf_du lg(mu)  ||d||  lg(rg) alpha_du alpha_pr  ls
  70  2.7228731e+03 1.66e+00 6.81e+10  -1.0 6.71e+07    -  6.34e-01 7.97e-04h  5
  71  2.7207350e+03 1.66e+00 6.81e+10  -1.0 6.55e+07    -  9.41e-02 7.85e-04f  5
  72  2.7149583e+03 1.66e+00 6.81e+10  -1.0 6.36e+07    -  9.84e-01 7.75e-04f  5
  73  2.7104810e+03 1.66e+00 6.80e+10  -1.0 6.08e+07    -  9.05e-02 7.75e-04f  5
  74  2.7068555e+03 1.66e+00 6.80e+10  -1.0 5.87e+07    -  5.06e-01 3.84e-04f  6
  75  2.7059118e+03 1.66e+00 6.80e+10  -1.0 5.54e+07    -  1.12e-01 1.97e-04f  7
  76  2.7237581e+03 1.66e+00 6.79e+10  -1.0 5.77e+07    -  1.42e-01 6.57e-04h  4
  77  2.7772914e+03 1.66e+00 6.79e+10  -1.0 9.64e+07    -  1.87e-01 1.08e-03h  3
  78  2.8761670e+03 1.66e+00 6.78e+10  -1.0 2.39e+08    -  4.33e-02 7.51e-04h  3
  79  3.4860015e+03 1.66e+00 1.34e+11  -1.0 4.57e+08    -  1.60e-01 2.23e-03w  1
iter    objective    inf_pr   inf_du lg(mu)  ||d||  lg(rg) alpha_du alpha_pr  ls
  80  6.9875835e+04 3.44e+00 1.66e+14  -1.0 3.09e+09    -  3.21e-03 1.18e-02w  1
  81  9.8886084e+02 6.43e+00 2.08e+14  -1.0 2.42e+09    -  7.64e-03 1.90e-02h  1
  82  9.8695761e+02 6.43e+00 1.27e+15  -1.0 1.18e+09   1.6 1.07e-05 5.25e-06f  1
  83  9.8740648e+02 1.03e+01 2.82e+16  -1.0 2.85e+07   5.6 4.59e-09 2.52e-04f  4
WARNING: Problem in step computation; switching to emergency mode.
  84r 9.8740648e+02 1.03e+01 1.00e+03   1.0 0.00e+00  19.0 0.00e+00 0.00e+00R  1
  85r 9.8740648e+02 1.96e+01 1.03e+03   1.0 1.03e+04    -  2.80e-02 9.90e-04f  1
  86r 9.8740656e+02 6.14e+01 1.04e+10   1.0 3.95e+03    -  3.23e-02 1.65e-02f  1
  87r 9.8740656e+02 6.14e+01 3.73e+09   1.0 7.14e+00   9.5 8.13e-03 5.25e-03f  2
  88r 9.8740656e+02 6.14e+01 7.31e+09   1.0 1.64e+01   9.0 9.31e-04 3.13e-04h  1
  89r 9.8740656e+02 6.14e+01 7.31e+09   1.0 1.76e+01   8.6 0.00e+00 4.96e-07R  4
iter    objective    inf_pr   inf_du lg(mu)  ||d||  lg(rg) alpha_du alpha_pr  ls
  90r 9.8740656e+02 6.14e+01 4.64e+11   1.0 8.72e-06   8.1 9.90e-01 1.00e+00f  1
WARNING: Problem in step computation; switching to emergency mode.
  91r 9.8740656e+02 6.14e+01 4.64e+11   1.0 8.72e-06  20.0 0.00e+00 0.00e+00R  1
WARNING: Problem in step computation; switching to emergency mode.
Restoration phase is called at point that is almost feasible,
  with constraint violation 0.000000e+00. Abort.
Restoration phase in the restoration phase failed.

Number of Iterations....: 91

                                   (scaled)                 (unscaled)
Objective...............:   9.8740655945196568e+02    9.8740655945196568e+02
Dual infeasibility......:   4.6422340046304138e+11    4.6422340046304138e+11
Constraint violation....:   6.1370398208774446e+01    6.1370398208774446e+01
Complementarity.........:   9.3207744291838463e+06    9.3207744291838463e+06
Overall NLP error.......:   2.5516005618647357e+11    4.6422340046304138e+11


Number of objective function evaluations             = 371
Number of objective gradient evaluations             = 85
Number of equality constraint evaluations            = 372
Number of inequality constraint evaluations          = 0
Number of equality constraint Jacobian evaluations   = 93
Number of inequality constraint Jacobian evaluations = 0
Number of Lagrangian Hessian evaluations             = 92
Total CPU secs in IPOPT (w/o function evaluations)   =      0.326
Total CPU secs in NLP function evaluations           =      3.717

EXIT: Restoration Failed!
